qbf_easy_train/easy_3373_SAT.qdimacs
p cnf 16 29
a 8 6 0
e 1 2 3 4 5 7 9 10 11 12 13 14 15 16 0
3 -1 0
3 -2 0
1 2 -3 0
3 -4 -5 0
-3 4 -5 0
3 4 5 0
-3 -4 5 0
9 -7 0
9 -8 0
7 8 -9 0
10 -6 0
10 -9 0
6 9 -10 0
11 10 0
11 7 0
-10 -7 -11 0
-14 12 0
-14 -13 0
-12 13 14 0
15 -11 0
15 14 0
11 -14 -15 0
-16 5 0
-16 15 0
-5 -15 16 0
4 -10 3 -14 -9 -13 0
3 -7 -2 0
5 -9 -10 -6 2 7 0
16 0
