sat_easy_train/easy_3373_SAT.dimacs
p cnf 103 328
-4 -2 0
-4 3 0
2 -3 4 0
6 -4 0
6 -5 0
4 5 -6 0
7 1 0
7 6 0
-1 -6 -7 0
-7 8 -9 0
7 -8 -9 0
-7 -8 9 0
7 8 9 0
-11 -9 0
-11 -10 0
9 10 11 0
-13 3 0
-13 -12 0
-3 12 13 0
13 -1 -14 0
-13 1 -14 0
13 1 14 0
-13 -1 14 0
-17 -16 0
-17 5 0
16 -5 17 0
18 -15 0
18 -17 0
15 17 -18 0
19 14 0
19 -18 0
-14 18 -19 0
21 -15 0
21 20 0
15 -20 -21 0
22 5 0
22 16 0
-5 -16 -22 0
23 -21 0
23 22 0
21 -22 -23 0
-24 4 0
-24 23 0
-4 -23 24 0
25 15 0
25 -24 0
-15 24 -25 0
-26 -7 0
-26 24 0
7 -24 26 0
27 25 0
27 -26 0
-25 26 -27 0
-19 27 -28 0
19 -27 -28 0
-19 -27 28 0
19 27 28 0
-29 -11 0
-29 -28 0
11 28 29 0
-30 -24 0
-30 -4 0
24 4 30 0
-31 -4 0
-31 21 0
4 -21 31 0
33 -32 0
33 15 0
32 -15 -33 0
31 -33 -34 0
-31 33 -34 0
31 33 34 0
-31 -33 34 0
-36 -5 0
-36 -35 0
5 35 36 0
-34 36 -37 0
34 -36 -37 0
-34 -36 37 0
34 36 37 0
-38 30 0
-38 -37 0
-30 37 38 0
39 -15 0
39 -17 0
15 17 -39 0
-41 1 0
-41 15 0
-1 -15 41 0
42 40 0
42 41 0
-40 -41 -42 0
-43 -39 0
-43 42 0
39 -42 43 0
45 44 0
45 -12 0
-44 12 -45 0
46 43 0
46 -45 0
-43 45 -46 0
47 38 0
47 46 0
-38 -46 -47 0
-29 -47 -48 0
29 47 -48 0
-29 47 48 0
29 -47 48 0
40 -15 -49 0
-40 15 -49 0
40 15 49 0
-40 -15 49 0
50 -49 0
50 -23 0
49 23 -50 0
50 2 -51 0
-50 -2 -51 0
50 -2 51 0
-50 2 51 0
52 -8 0
52 -4 0
8 4 -52 0
-53 -52 0
-53 -6 0
52 6 53 0
54 23 0
54 -53 0
-23 53 -54 0
51 -54 -55 0
-51 54 -55 0
51 54 55 0
-51 -54 55 0
-56 35 0
-56 5 0
-35 -5 56 0
50 56 -57 0
-50 -56 -57 0
50 -56 57 0
-50 56 57 0
-58 -57 0
-58 3 0
57 -3 58 0
-59 -21 0
-59 3 0
21 -3 59 0
59 13 -60 0
-59 -13 -60 0
59 -13 60 0
-59 13 60 0
61 58 0
61 -60 0
-58 60 -61 0
62 32 0
62 -4 0
-32 4 -62 0
-61 62 -63 0
61 -62 -63 0
-61 -62 63 0
61 62 63 0
-4 -32 -64 0
4 32 -64 0
-4 32 64 0
4 -32 64 0
64 41 -65 0
-64 -41 -65 0
64 -41 65 0
-64 41 65 0
-66 6 0
-66 -3 0
-6 3 66 0
67 65 0
67 -66 0
-65 66 -67 0
-68 -63 0
-68 67 0
63 -67 68 0
69 55 0
69 -68 0
-55 68 -69 0
-70 13 -71 0
70 -13 -71 0
-70 -13 71 0
70 13 71 0
-72 5 0
-72 71 0
-5 -71 72 0
9 72 -73 0
-9 -72 -73 0
9 -72 73 0
-9 72 73 0
-74 -5 0
-74 50 0
5 -50 74 0
73 -74 -75 0
-73 74 -75 0
73 74 75 0
-73 -74 75 0
-76 -32 -77 0
76 32 -77 0
-76 32 77 0
76 -32 77 0
-78 75 0
-78 -77 0
-75 77 78 0
79 69 0
79 -78 0
-69 78 -79 0
80 -48 0
80 -79 0
48 79 -80 0
44 71 -81 0
-44 -71 -81 0
44 -71 81 0
-44 71 81 0
82 16 0
82 23 0
-16 -23 -82 0
83 -81 0
83 -82 0
81 82 -83 0
-84 -4 0
-84 -23 0
4 23 84 0
23 41 -85 0
-23 -41 -85 0
23 -41 85 0
-23 41 85 0
-86 -84 0
-86 -85 0
84 85 86 0
87 83 0
87 86 0
-83 -86 -87 0
-88 -70 0
-88 23 0
70 -23 88 0
-89 -88 0
-89 -16 0
88 16 89 0
-90 -41 0
-90 -89 0
41 89 90 0
91 -87 0
91 90 0
87 -90 -91 0
-92 22 0
-92 -2 0
-22 2 92 0
91 -92 -93 0
-91 92 -93 0
91 92 93 0
-91 -92 93 0
40 -35 -94 0
-40 35 -94 0
40 35 94 0
-40 -35 94 0
-95 22 0
-95 -94 0
-22 94 95 0
96 1 0
96 -12 0
-1 12 -96 0
97 -95 0
97 -96 0
95 96 -97 0
98 2 0
98 -20 0
-2 20 -98 0
32 -5 -99 0
-32 5 -99 0
32 5 99 0
-32 -5 99 0
-100 -98 0
-100 99 0
98 -99 100 0
-101 -97 0
-101 100 0
97 -100 101 0
-102 -93 0
-102 101 0
93 -101 102 0
103 80 0
103 102 0
-80 -102 -103 0
-4 -90 -94 11 26 -60 0
-83 52 80 0
8 -7 0
60 69 -25 49 -19 0
67 -101 75 -45 0
30 21 -46 -95 -75 0
-42 85 8 16 0
55 -30 63 0
-85 -45 42 0
-75 41 -79 0
59 50 -3 13 -97 0
44 89 5 18 0
-60 30 0
-78 -60 0
-14 -7 -63 0
-52 33 34 -87 0
84 -59 -52 80 0
-20 75 -43 0
-83 -49 -64 -38 85 0
97 19 -2 0
101 -73 0
51 -22 -23 73 11 0
10 -78 -22 -55 102 0
91 -4 96 70 -20 13 0
79 -59 -85 0
54 14 -49 -3 19 0
-85 34 -53 -62 0
84 -17 0
-59 99 20 57 0
-47 -87 6 98 0
86 15 -48 -46 -29 0
89 35 0
60 54 -83 0
12 -13 82 85 0
102 -57 87 -1 103 0
-9 -35 70 73 62 -103 0
38 -23 5 0
-64 -39 27 -28 25 0
-80 7 27 -9 0
77 -16 -71 -36 0
-73 22 -94 -75 51 0
35 -53 0
101 81 17 0
103 0
